NAME : gr96.tsp
TYPE : TOUR
DIMENSION : 96
TOUR_LENGTH : 583.761634903808
TOUR_SECTION
1
31
30
29
2
3
4
5
6
8
7
9
10
12
13
14
15
16
17
20
19
18
21
22
26
28
27
65
66
67
68
64
63
62
61
60
59
71
72
73
75
74
84
85
86
87
90
89
88
78
77
76
92
93
94
96
95
79
80
91
83
81
82
70
69
56
57
58
54
53
52
55
51
49
43
42
41
40
39
44
45
46
47
48
25
24
23
50
11
33
34
35
38
37
36
32
-1
